HFSDDW
15	12	4
0	73	1	8	2	99	3	99
0	32	1	92	2	9	3	70
0	55	1	18	2	50	3	74
0	61	1	34	2	76	3	18
0	70	1	97	2	56	3	98
0	29	1	75	2	90	3	94
0	31	1	88	2	24	3	96
0	67	1	74	2	12	3	80
0	55	1	93	2	40	3	31
0	51	1	17	2	5	3	83
0	93	1	50	2	35	3	99
0	82	1	40	2	59	3	84
0	88	1	22	2	45	3	3
0	11	1	2	2	33	3	97
0	18	1	6	2	69	3	43
LBCmax: 431
RELDUE
-1	307	8	4
-1	160	9	2
-1	137	9	3
-1	337	4	1
-1	142	5	3
-1	312	1	7
-1	178	5	6
-1	304	4	2
-1	373	5	5
-1	247	6	2
-1	301	8	5
-1	270	5	9
-1	372	2	2
-1	319	9	9
-1	139	4	5
DDW
249	365
157	163
126	148
270	404
126	158
275	349
167	189
246	362
313	433
240	254
283	319
267	273
327	417
284	354
111	167
